(synth-fun lemma ((x Int) (nil Int)) Bool

           ((Start Bool) (B1 Bool) (I Int) (I1 Int))

           ((Start Bool (B1
                   (=> B1 B1)
                   (and B1 B1)
                   (or B1 B1)
                   (not B1)))
            (B1 Bool ((lst I) (dlst I)))
            (I Int (I1
                   (nxt I1)
                   (prv I1)))
            (I1 Int (x nil)))
)

(define-fun rswitch () Int 0)
